NAME : X-n120-k6
COMMENT : "Generated by Uchoa, Pecin, Pessoa, Poggi, Subramanian, and Vidal (2013)"
TYPE : CVRP
DIMENSION : 120
EDGE_WEIGHT_TYPE : EUC_2D
CAPACITY : 21
NODE_COORD_SECTION
1 0 0
2 927 318
3 319 475
4 471 281
5 894 615
6 712 832
7 677 210
8 336 967
9 490 360
10 367 685
11 153 169
12 799 63
13 247 455
14 492 585
15 131 701
16 309 721
17 210 256
18 511 753
19 447 796
20 394 856
21 131 13
22 181 425
23 892 585
24 161 651
25 964 365
26 82 353
27 706 842
28 793 53
29 364 841
30 126 306
31 86 477
32 51 277
33 192 360
34 52 568
35 682 45
36 778 300
37 10 737
38 928 438
39 95 240
40 391 368
41 586 170
42 645 731
43 381 396
44 387 491
45 388 753
46 429 276
47 547 989
48 840 945
49 88 969
50 331 421
51 55 132
52 904 771
53 63 190
54 731 528
55 320 84
56 308 276
57 891 182
58 836 473
59 209 741
60 864 533
61 852 600
62 180 150
63 544 140
64 956 881
65 432 487
66 129 968
67 597 962
68 51 423
69 827 605
70 776 619
71 354 297
72 311 129
73 552 106
74 24 318
75 148 944
76 502 869
77 396 492
78 815 500
79 425 338
80 178 511
81 168 274
82 775 603
83 481 465
84 281 777
85 216 211
86 784 740
87 127 992
88 544 117
89 92 170
90 846 755
91 614 326
92 180 372
93 720 252
94 262 291
95 171 186
96 868 613
97 291 119
98 427 974
99 481 557
100 403 645
101 819 502
102 915 919
103 581 85
104 527 743
105 953 893
106 955 912
107 269 924
108 216 84
109 601 952
110 441 439
111 170 949
112 614 92
113 439 212
114 413 509
115 545 336
116 50 806
117 166 86
118 658 870
119 122 511
120 178 170
PICKUP_AND_DELIVERY_SECTION
1 0 0 1000000000 0 0 0
2 0 0 1000000000 0 0.657 0.343
3 0 0 1000000000 0 0.3284 0.6716
4 0 0 1000000000 0 0.4034 0.5966
5 0 0 1000000000 0 0.3121 0.6879
6 0 0 1000000000 0 0.1442 0.8558
7 0 0 1000000000 0 0.6898 0.3102
8 0 0 1000000000 0 0.6525 0.3475
9 0 0 1000000000 0 0.2653 0.7347
10 0 0 1000000000 0 0.4642 0.5358
11 0 0 1000000000 0 0.09467 0.9053
12 0 0 1000000000 0 0.9212 0.07885
13 0 0 1000000000 0 0.4571 0.5429
14 0 0 1000000000 0 0.159 0.841
15 0 0 1000000000 0 0.8131 0.1869
16 0 0 1000000000 0 0.5714 0.4286
17 0 0 1000000000 0 0.1797 0.8203
18 0 0 1000000000 0 0.3214 0.6786
19 0 0 1000000000 0 0.4384 0.5616
20 0 0 1000000000 0 0.5397 0.4603
21 0 0 1000000000 0 0.9008 0.09924
22 0 0 1000000000 0 0.5741 0.4259
23 0 0 1000000000 0 0.3442 0.6558
24 0 0 1000000000 0 0.7527 0.2473
25 0 0 1000000000 0 0.6214 0.3786
26 0 0 1000000000 0 0.7677 0.2323
27 0 0 1000000000 0 0.1615 0.8385
28 0 0 1000000000 0 0.9332 0.06683
29 0 0 1000000000 0 0.5672 0.4328
30 0 0 1000000000 0 0.5882 0.4118
31 0 0 1000000000 0 0.8197 0.1803
32 0 0 1000000000 0 0.8159 0.1841
33 0 0 1000000000 0 0.4667 0.5333
34 0 0 1000000000 0 0.9085 0.09155
35 0 0 1000000000 0 0.934 0.06598
36 0 0 1000000000 0 0.6144 0.3856
37 0 0 1000000000 0 0.9864 0.01357
38 0 0 1000000000 0 0.528 0.472
39 0 0 1000000000 0 0.6042 0.3958
40 0 0 1000000000 0 0.05882 0.9412
41 0 0 1000000000 0 0.7099 0.2901
42 0 0 1000000000 0 0.1176 0.8824
43 0 0 1000000000 0 0.03788 0.9621
44 0 0 1000000000 0 0.2118 0.7882
45 0 0 1000000000 0 0.4847 0.5153
46 0 0 1000000000 0 0.3566 0.6434
47 0 0 1000000000 0 0.4469 0.5531
48 0 0 1000000000 0 0.1111 0.8889
49 0 0 1000000000 0 0.9092 0.09082
50 0 0 1000000000 0 0.2138 0.7862
51 0 0 1000000000 0 0.5833 0.4167
52 0 0 1000000000 0 0.1471 0.8529
53 0 0 1000000000 0 0.6684 0.3316
54 0 0 1000000000 0 0.2777 0.7223
55 0 0 1000000000 0 0.7375 0.2625
56 0 0 1000000000 0 0.1039 0.8961
57 0 0 1000000000 0 0.7957 0.2043
58 0 0 1000000000 0 0.4342 0.5658
59 0 0 1000000000 0 0.7179 0.2821
60 0 0 1000000000 0 0.3831 0.6169
61 0 0 1000000000 0 0.2958 0.7042
62 0 0 1000000000 0 0.1667 0.8333
63 0 0 1000000000 0 0.7426 0.2574
64 0 0 1000000000 0 0.07845 0.9215
65 0 0 1000000000 0 0.1129 0.8871
66 0 0 1000000000 0 0.8667 0.1333
67 0 0 1000000000 0 0.3794 0.6206
68 0 0 1000000000 0 0.8794 0.1206
69 0 0 1000000000 0 0.2684 0.7316
70 0 0 1000000000 0 0.2023 0.7977
71 0 0 1000000000 0 0.161 0.839
72 0 0 1000000000 0 0.5852 0.4148
73 0 0 1000000000 0 0.808 0.192
74 0 0 1000000000 0 0.9245 0.07547
75 0 0 1000000000 0 0.8432 0.1568
76 0 0 1000000000 0 0.4223 0.5777
77 0 0 1000000000 0 0.1951 0.8049
78 0 0 1000000000 0 0.3865 0.6135
79 0 0 1000000000 0 0.2047 0.7953
80 0 0 1000000000 0 0.6517 0.3483
81 0 0 1000000000 0 0.3869 0.6131
82 0 0 1000000000 0 0.2219 0.7781
83 0 0 1000000000 0 0.03326 0.9667
84 0 0 1000000000 0 0.6384 0.3616
85 0 0 1000000000 0 0.02315 0.9769
86 0 0 1000000000 0 0.05612 0.9439
87 0 0 1000000000 0 0.872 0.128
88 0 0 1000000000 0 0.7849 0.2151
89 0 0 1000000000 0 0.4588 0.5412
90 0 0 1000000000 0 0.1076 0.8924
91 0 0 1000000000 0 0.4691 0.5309
92 0 0 1000000000 0 0.5161 0.4839
93 0 0 1000000000 0 0.65 0.35
94 0 0 1000000000 0 0.09966 0.9003
95 0 0 1000000000 0 0.08065 0.9194
96 0 0 1000000000 0 0.2938 0.7062
97 0 0 1000000000 0 0.5911 0.4089
98 0 0 1000000000 0 0.5616 0.4384
99 0 0 1000000000 0 0.1364 0.8636
100 0 0 1000000000 0 0.3752 0.6248
101 0 0 1000000000 0 0.3871 0.6129
102 0 0 1000000000 0 0.00435 0.9956
103 0 0 1000000000 0 0.8537 0.1463
104 0 0 1000000000 0 0.2907 0.7093
105 0 0 1000000000 0 0.06296 0.937
106 0 0 1000000000 0 0.04503 0.955
107 0 0 1000000000 0 0.7089 0.2911
108 0 0 1000000000 0 0.6111 0.3889
109 0 0 1000000000 0 0.3687 0.6313
110 0 0 1000000000 0 0.00454 0.9955
111 0 0 1000000000 0 0.8209 0.1791
112 0 0 1000000000 0 0.8502 0.1498
113 0 0 1000000000 0 0.5171 0.4829
114 0 0 1000000000 0 0.1886 0.8114
115 0 0 1000000000 0 0.3835 0.6165
116 0 0 1000000000 0 0.938 0.06203
117 0 0 1000000000 0 0.4819 0.5181
118 0 0 1000000000 0 0.2437 0.7563
119 0 0 1000000000 0 0.7613 0.2387
120 0 0 1000000000 0 0.04494 0.9551
